* #variable= 35 #constraint= 1 #product= 1346 sizeproduct= 4140
min: +64 x1 x2 x3 x4 +64 x1 x2 x4 x5 +64 x1 x2 x5 x6 +64 x1 x2 x6 x7 +64 x1 x2 x7 x8 +64 x1 x2 x8 x9 +64 x1 x3 x4 x6 +64 x1 x3 x5 x7 +64 x1 x3 x6 x8 +64 x1 x3 x7 x9 +64 x1 x4 x5 x8 +64 x1 x4 x6 x9 +128 x2 x3 x4 x5 +128 x2 x3 x5 x6 +128 x2 x3 x6 x7 +128 x2 x3 x7 x8 +128 x2 x3 x8 x9 +64 x2 x3 x9 x10 +128 x2 x4 x5 x7 +128 x2 x4 x6 x8 +128 x2 x4 x7 x9 +64 x2 x4 x8 x10 +128 x2 x5 x6 x9 +64 x2 x5 x7 x10 +192 x3 x4 x5 x6 +192 x3 x4 x6 x7 +192 x3 x4 x7 x8 +192 x3 x4 x8 x9 +128 x3 x4 x9 x10 +64 x3 x4 x10 x11 +192 x3 x5 x6 x8 +192 x3 x5 x7 x9 +128 x3 x5 x8 x10 +64 x3 x5 x9 x11 +128 x3 x6 x7 x10 +64 x3 x6 x8 x11 +256 x4 x5 x6 x7 +256 x4 x5 x7 x8 +256 x4 x5 x8 x9 +192 x4 x5 x9 x10 +128 x4 x5 x10 x11 +64 x4 x5 x11 x12 +256 x4 x6 x7 x9 +192 x4 x6 x8 x10 +128 x4 x6 x9 x11 +64 x4 x6 x10 x12 +128 x4 x7 x8 x11 +64 x4 x7 x9 x12 +320 x5 x6 x7 x8 +320 x5 x6 x8 x9 +256 x5 x6 x9 x10 +192 x5 x6 x10 x11 +128 x5 x6 x11 x12 +64 x5 x6 x12 x13 +256 x5 x7 x8 x10 +192 x5 x7 x9 x11 +128 x5 x7 x10 x12 +64 x5 x7 x11 x13 +128 x5 x8 x9 x12 +64 x5 x8 x10 x13 +384 x6 x7 x8 x9 +320 x6 x7 x9 x10 +256 x6 x7 x10 x11 +192 x6 x7 x11 x12 +128 x6 x7 x12 x13 +64 x6 x7 x13 x14 +256 x6 x8 x9 x11 +192 x6 x8 x10 x12 +128 x6 x8 x11 x13 +64 x6 x8 x12 x14 +128 x6 x9 x10 x13 +64 x6 x9 x11 x14 +384 x7 x8 x9 x10 +320 x7 x8 x10 x11 +256 x7 x8 x11 x12 +192 x7 x8 x12 x13 +128 x7 x8 x13 x14 +64 x7 x8 x14 x15 +256 x7 x9 x10 x12 +192 x7 x9 x11 x13 +128 x7 x9 x12 x14 +64 x7 x9 x13 x15 +128 x7 x10 x11 x14 +64 x7 x10 x12 x15 +384 x8 x9 x10 x11 +320 x8 x9 x11 x12 +256 x8 x9 x12 x13 +192 x8 x9 x13 x14 +128 x8 x9 x14 x15 +64 x8 x9 x15 x16 +256 x8 x10 x11 x13 +192 x8 x10 x12 x14 +128 x8 x10 x13 x15 +64 x8 x10 x14 x16 +128 x8 x11 x12 x15 +64 x8 x11 x13 x16 +384 x9 x10 x11 x12 +320 x9 x10 x12 x13 +256 x9 x10 x13 x14 +192 x9 x10 x14 x15 +128 x9 x10 x15 x16 +64 x9 x10 x16 x17 +256 x9 x11 x12 x14 +192 x9 x11 x13 x15 +128 x9 x11 x14 x16 +64 x9 x11 x15 x17 +128 x9 x12 x13 x16 +64 x9 x12 x14 x17 +384 x10 x11 x12 x13 +320 x10 x11 x13 x14 +256 x10 x11 x14 x15 +192 x10 x11 x15 x16 +128 x10 x11 x16 x17 +64 x10 x11 x17 x18 +256 x10 x12 x13 x15 +192 x10 x12 x14 x16 +128 x10 x12 x15 x17 +64 x10 x12 x16 x18 +128 x10 x13 x14 x17 +64 x10 x13 x15 x18 +384 x11 x12 x13 x14 +320 x11 x12 x14 x15 +256 x11 x12 x15 x16 +192 x11 x12 x16 x17 +128 x11 x12 x17 x18 +64 x11 x12 x18 x19 +256 x11 x13 x14 x16 +192 x11 x13 x15 x17 +128 x11 x13 x16 x18 +64 x11 x13 x17 x19 +128 x11 x14 x15 x18 +64 x11 x14 x16 x19 +384 x12 x13 x14 x15 +320 x12 x13 x15 x16 +256 x12 x13 x16 x17 +192 x12 x13 x17 x18 +128 x12 x13 x18 x19 +64 x12 x13 x19 x20 +256 x12 x14 x15 x17 +192 x12 x14 x16 x18 +128 x12 x14 x17 x19 +64 x12 x14 x18 x20 +128 x12 x15 x16 x19 +64 x12 x15 x17 x20 +384 x13 x14 x15 x16 +320 x13 x14 x16 x17 +256 x13 x14 x17 x18 +192 x13 x14 x18 x19 +128 x13 x14 x19 x20 +64 x13 x14 x20 x21 +256 x13 x15 x16 x18 +192 x13 x15 x17 x19 +128 x13 x15 x18 x20 +64 x13 x15 x19 x21 +128 x13 x16 x17 x20 +64 x13 x16 x18 x21 +384 x14 x15 x16 x17 +320 x14 x15 x17 x18 +256 x14 x15 x18 x19 +192 x14 x15 x19 x20 +128 x14 x15 x20 x21 +64 x14 x15 x21 x22 +256 x14 x16 x17 x19 +192 x14 x16 x18 x20 +128 x14 x16 x19 x21 +64 x14 x16 x20 x22 +128 x14 x17 x18 x21 +64 x14 x17 x19 x22 +384 x15 x16 x17 x18 +320 x15 x16 x18 x19 +256 x15 x16 x19 x20 +192 x15 x16 x20 x21 +128 x15 x16 x21 x22 +64 x15 x16 x22 x23 +256 x15 x17 x18 x20 +192 x15 x17 x19 x21 +128 x15 x17 x20 x22 +64 x15 x17 x21 x23 +128 x15 x18 x19 x22 +64 x15 x18 x20 x23 +384 x16 x17 x18 x19 +320 x16 x17 x19 x20 +256 x16 x17 x20 x21 +192 x16 x17 x21 x22 +128 x16 x17 x22 x23 +64 x16 x17 x23 x24 +256 x16 x18 x19 x21 +192 x16 x18 x20 x22 +128 x16 x18 x21 x23 +64 x16 x18 x22 x24 +128 x16 x19 x20 x23 +64 x16 x19 x21 x24 +384 x17 x18 x19 x20 +320 x17 x18 x20 x21 +256 x17 x18 x21 x22 +192 x17 x18 x22 x23 +128 x17 x18 x23 x24 +64 x17 x18 x24 x25 +256 x17 x19 x20 x22 +192 x17 x19 x21 x23 +128 x17 x19 x22 x24 +64 x17 x19 x23 x25 +128 x17 x20 x21 x24 +64 x17 x20 x22 x25 +384 x18 x19 x20 x21 +320 x18 x19 x21 x22 +256 x18 x19 x22 x23 +192 x18 x19 x23 x24 +128 x18 x19 x24 x25 +64 x18 x19 x25 x26 +256 x18 x20 x21 x23 +192 x18 x20 x22 x24 +128 x18 x20 x23 x25 +64 x18 x20 x24 x26 +128 x18 x21 x22 x25 +64 x18 x21 x23 x26 +384 x19 x20 x21 x22 +320 x19 x20 x22 x23 +256 x19 x20 x23 x24 +192 x19 x20 x24 x25 +128 x19 x20 x25 x26 +64 x19 x20 x26 x27 +256 x19 x21 x22 x24 +192 x19 x21 x23 x25 +128 x19 x21 x24 x26 +64 x19 x21 x25 x27 +128 x19 x22 x23 x26 +64 x19 x22 x24 x27 +384 x20 x21 x22 x23 +320 x20 x21 x23 x24 +256 x20 x21 x24 x25 +192 x20 x21 x25 x26 +128 x20 x21 x26 x27 +64 x20 x21 x27 x28 +256 x20 x22 x23 x25 +192 x20 x22 x24 x26 +128 x20 x22 x25 x27 +64 x20 x22 x26 x28 +128 x20 x23 x24 x27 +64 x20 x23 x25 x28 +384 x21 x22 x23 x24 +320 x21 x22 x24 x25 +256 x21 x22 x25 x26 +192 x21 x22 x26 x27 +128 x21 x22 x27 x28 +64 x21 x22 x28 x29 +256 x21 x23 x24 x26 +192 x21 x23 x25 x27 +128 x21 x23 x26 x28 +64 x21 x23 x27 x29 +128 x21 x24 x25 x28 +64 x21 x24 x26 x29 +384 x22 x23 x24 x25 +320 x22 x23 x25 x26 +256 x22 x23 x26 x27 +192 x22 x23 x27 x28 +128 x22 x23 x28 x29 +64 x22 x23 x29 x30 +256 x22 x24 x25 x27 +192 x22 x24 x26 x28 +128 x22 x24 x27 x29 +64 x22 x24 x28 x30 +128 x22 x25 x26 x29 +64 x22 x25 x27 x30 +384 x23 x24 x25 x26 +320 x23 x24 x26 x27 +256 x23 x24 x27 x28 +192 x23 x24 x28 x29 +128 x23 x24 x29 x30 +64 x23 x24 x30 x31 +256 x23 x25 x26 x28 +192 x23 x25 x27 x29 +128 x23 x25 x28 x30 +64 x23 x25 x29 x31 +128 x23 x26 x27 x30 +64 x23 x26 x28 x31 +384 x24 x25 x26 x27 +320 x24 x25 x27 x28 +256 x24 x25 x28 x29 +192 x24 x25 x29 x30 +128 x24 x25 x30 x31 +64 x24 x25 x31 x32 +256 x24 x26 x27 x29 +192 x24 x26 x28 x30 +128 x24 x26 x29 x31 +64 x24 x26 x30 x32 +128 x24 x27 x28 x31 +64 x24 x27 x29 x32 +384 x25 x26 x27 x28 +320 x25 x26 x28 x29 +256 x25 x26 x29 x30 +192 x25 x26 x30 x31 +128 x25 x26 x31 x32 +64 x25 x26 x32 x33 +256 x25 x27 x28 x30 +192 x25 x27 x29 x31 +128 x25 x27 x30 x32 +64 x25 x27 x31 x33 +128 x25 x28 x29 x32 +64 x25 x28 x30 x33 +384 x26 x27 x28 x29 +320 x26 x27 x29 x30 +256 x26 x27 x30 x31 +192 x26 x27 x31 x32 +128 x26 x27 x32 x33 +64 x26 x27 x33 x34 +256 x26 x28 x29 x31 +192 x26 x28 x30 x32 +128 x26 x28 x31 x33 +64 x26 x28 x32 x34 +128 x26 x29 x30 x33 +64 x26 x29 x31 x34 +384 x27 x28 x29 x30 +320 x27 x28 x30 x31 +256 x27 x28 x31 x32 +192 x27 x28 x32 x33 +128 x27 x28 x33 x34 +64 x27 x28 x34 x35 +256 x27 x29 x30 x32 +192 x27 x29 x31 x33 +128 x27 x29 x32 x34 +64 x27 x29 x33 x35 +128 x27 x30 x31 x34 +64 x27 x30 x32 x35 +320 x28 x29 x30 x31 +256 x28 x29 x31 x32 +192 x28 x29 x32 x33 +128 x28 x29 x33 x34 +64 x28 x29 x34 x35 +192 x28 x30 x31 x33 +128 x28 x30 x32 x34 +64 x28 x30 x33 x35 +64 x28 x31 x32 x35 +256 x29 x30 x31 x32 +192 x29 x30 x32 x33 +128 x29 x30 x33 x34 +64 x29 x30 x34 x35 +128 x29 x31 x32 x34 +64 x29 x31 x33 x35 +192 x30 x31 x32 x33 +128 x30 x31 x33 x34 +64 x30 x31 x34 x35 +64 x30 x32 x33 x35 +128 x31 x32 x33 x34 +64 x31 x32 x34 x35 +64 x32 x33 x34 x35 -32 x1 x2 x3 -64 x1 x2 x4 -64 x1 x2 x5 -64 x1 x2 x6 -64 x1 x2 x7 -64 x1 x2 x8 -32 x1 x2 x9 -64 x1 x3 x4 -32 x1 x3 x5 -64 x1 x3 x6 -64 x1 x3 x7 -32 x1 x3 x8 -32 x1 x3 x9 -64 x1 x4 x5 -64 x1 x4 x6 -32 x1 x4 x8 -32 x1 x4 x9 -32 x1 x5 x6 -32 x1 x5 x7 -32 x1 x5 x8 -32 x1 x6 x7 -32 x1 x6 x8 -32 x1 x6 x9 -32 x1 x7 x8 -32 x1 x7 x9 -32 x1 x8 x9 -96 x2 x3 x4 -128 x2 x3 x5 -128 x2 x3 x6 -128 x2 x3 x7 -128 x2 x3 x8 -96 x2 x3 x9 -32 x2 x3 x10 -160 x2 x4 x5 -64 x2 x4 x6 -128 x2 x4 x7 -96 x2 x4 x8 -64 x2 x4 x9 -32 x2 x4 x10 -160 x2 x5 x6 -96 x2 x5 x7 -64 x2 x5 x9 -32 x2 x5 x10 -96 x2 x6 x7 -64 x2 x6 x8 -64 x2 x6 x9 -96 x2 x7 x8 -64 x2 x7 x9 -32 x2 x7 x10 -96 x2 x8 x9 -32 x2 x8 x10 -32 x2 x9 x10 -160 x3 x4 x5 -224 x3 x4 x6 -192 x3 x4 x7 -192 x3 x4 x8 -160 x3 x4 x9 -96 x3 x4 x10 -32 x3 x4 x11 -256 x3 x5 x6 -128 x3 x5 x7 -160 x3 x5 x8 -128 x3 x5 x9 -64 x3 x5 x10 -32 x3 x5 x11 -224 x3 x6 x7 -160 x3 x6 x8 -64 x3 x6 x10 -32 x3 x6 x11 -160 x3 x7 x8 -128 x3 x7 x9 -64 x3 x7 x10 -160 x3 x8 x9 -64 x3 x8 x10 -32 x3 x8 x11 -96 x3 x9 x10 -32 x3 x9 x11 -32 x3 x10 x11 -224 x4 x5 x6 -320 x4 x5 x7 -288 x4 x5 x8 -224 x4 x5 x9 -160 x4 x5 x10 -96 x4 x5 x11 -32 x4 x5 x12 -352 x4 x6 x7 -160 x4 x6 x8 -224 x4 x6 x9 -128 x4 x6 x10 -64 x4 x6 x11 -32 x4 x6 x12 -288 x4 x7 x8 -224 x4 x7 x9 -64 x4 x7 x11 -32 x4 x7 x12 -224 x4 x8 x9 -128 x4 x8 x10 -64 x4 x8 x11 -160 x4 x9 x10 -64 x4 x9 x11 -32 x4 x9 x12 -96 x4 x10 x11 -32 x4 x10 x12 -32 x4 x11 x12 -288 x5 x6 x7 -416 x5 x6 x8 -352 x5 x6 x9 -224 x5 x6 x10 -160 x5 x6 x11 -96 x5 x6 x12 -32 x5 x6 x13 -416 x5 x7 x8 -192 x5 x7 x9 -224 x5 x7 x10 -128 x5 x7 x11 -64 x5 x7 x12 -32 x5 x7 x13 -352 x5 x8 x9 -224 x5 x8 x10 -64 x5 x8 x12 -32 x5 x8 x13 -224 x5 x9 x10 -128 x5 x9 x11 -64 x5 x9 x12 -160 x5 x10 x11 -64 x5 x10 x12 -32 x5 x10 x13 -96 x5 x11 x12 -32 x5 x11 x13 -32 x5 x12 x13 -352 x6 x7 x8 -480 x6 x7 x9 -352 x6 x7 x10 -224 x6 x7 x11 -160 x6 x7 x12 -96 x6 x7 x13 -32 x6 x7 x14 -480 x6 x8 x9 -192 x6 x8 x10 -224 x6 x8 x11 -128 x6 x8 x12 -64 x6 x8 x13 -32 x6 x8 x14 -352 x6 x9 x10 -224 x6 x9 x11 -64 x6 x9 x13 -32 x6 x9 x14 -224 x6 x10 x11 -128 x6 x10 x12 -64 x6 x10 x13 -160 x6 x11 x12 -64 x6 x11 x13 -32 x6 x11 x14 -96 x6 x12 x13 -32 x6 x12 x14 -32 x6 x13 x14 -384 x7 x8 x9 -480 x7 x8 x10 -352 x7 x8 x11 -224 x7 x8 x12 -160 x7 x8 x13 -96 x7 x8 x14 -32 x7 x8 x15 -480 x7 x9 x10 -192 x7 x9 x11 -224 x7 x9 x12 -128 x7 x9 x13 -64 x7 x9 x14 -32 x7 x9 x15 -352 x7 x10 x11 -224 x7 x10 x12 -64 x7 x10 x14 -32 x7 x10 x15 -224 x7 x11 x12 -128 x7 x11 x13 -64 x7 x11 x14 -160 x7 x12 x13 -64 x7 x12 x14 -32 x7 x12 x15 -96 x7 x13 x14 -32 x7 x13 x15 -32 x7 x14 x15 -384 x8 x9 x10 -480 x8 x9 x11 -352 x8 x9 x12 -224 x8 x9 x13 -160 x8 x9 x14 -96 x8 x9 x15 -32 x8 x9 x16 -480 x8 x10 x11 -192 x8 x10 x12 -224 x8 x10 x13 -128 x8 x10 x14 -64 x8 x10 x15 -32 x8 x10 x16 -352 x8 x11 x12 -224 x8 x11 x13 -64 x8 x11 x15 -32 x8 x11 x16 -224 x8 x12 x13 -128 x8 x12 x14 -64 x8 x12 x15 -160 x8 x13 x14 -64 x8 x13 x15 -32 x8 x13 x16 -96 x8 x14 x15 -32 x8 x14 x16 -32 x8 x15 x16 -384 x9 x10 x11 -480 x9 x10 x12 -352 x9 x10 x13 -224 x9 x10 x14 -160 x9 x10 x15 -96 x9 x10 x16 -32 x9 x10 x17 -480 x9 x11 x12 -192 x9 x11 x13 -224 x9 x11 x14 -128 x9 x11 x15 -64 x9 x11 x16 -32 x9 x11 x17 -352 x9 x12 x13 -224 x9 x12 x14 -64 x9 x12 x16 -32 x9 x12 x17 -224 x9 x13 x14 -128 x9 x13 x15 -64 x9 x13 x16 -160 x9 x14 x15 -64 x9 x14 x16 -32 x9 x14 x17 -96 x9 x15 x16 -32 x9 x15 x17 -32 x9 x16 x17 -384 x10 x11 x12 -480 x10 x11 x13 -352 x10 x11 x14 -224 x10 x11 x15 -160 x10 x11 x16 -96 x10 x11 x17 -32 x10 x11 x18 -480 x10 x12 x13 -192 x10 x12 x14 -224 x10 x12 x15 -128 x10 x12 x16 -64 x10 x12 x17 -32 x10 x12 x18 -352 x10 x13 x14 -224 x10 x13 x15 -64 x10 x13 x17 -32 x10 x13 x18 -224 x10 x14 x15 -128 x10 x14 x16 -64 x10 x14 x17 -160 x10 x15 x16 -64 x10 x15 x17 -32 x10 x15 x18 -96 x10 x16 x17 -32 x10 x16 x18 -32 x10 x17 x18 -384 x11 x12 x13 -480 x11 x12 x14 -352 x11 x12 x15 -224 x11 x12 x16 -160 x11 x12 x17 -96 x11 x12 x18 -32 x11 x12 x19 -480 x11 x13 x14 -192 x11 x13 x15 -224 x11 x13 x16 -128 x11 x13 x17 -64 x11 x13 x18 -32 x11 x13 x19 -352 x11 x14 x15 -224 x11 x14 x16 -64 x11 x14 x18 -32 x11 x14 x19 -224 x11 x15 x16 -128 x11 x15 x17 -64 x11 x15 x18 -160 x11 x16 x17 -64 x11 x16 x18 -32 x11 x16 x19 -96 x11 x17 x18 -32 x11 x17 x19 -32 x11 x18 x19 -384 x12 x13 x14 -480 x12 x13 x15 -352 x12 x13 x16 -224 x12 x13 x17 -160 x12 x13 x18 -96 x12 x13 x19 -32 x12 x13 x20 -480 x12 x14 x15 -192 x12 x14 x16 -224 x12 x14 x17 -128 x12 x14 x18 -64 x12 x14 x19 -32 x12 x14 x20 -352 x12 x15 x16 -224 x12 x15 x17 -64 x12 x15 x19 -32 x12 x15 x20 -224 x12 x16 x17 -128 x12 x16 x18 -64 x12 x16 x19 -160 x12 x17 x18 -64 x12 x17 x19 -32 x12 x17 x20 -96 x12 x18 x19 -32 x12 x18 x20 -32 x12 x19 x20 -384 x13 x14 x15 -480 x13 x14 x16 -352 x13 x14 x17 -224 x13 x14 x18 -160 x13 x14 x19 -96 x13 x14 x20 -32 x13 x14 x21 -480 x13 x15 x16 -192 x13 x15 x17 -224 x13 x15 x18 -128 x13 x15 x19 -64 x13 x15 x20 -32 x13 x15 x21 -352 x13 x16 x17 -224 x13 x16 x18 -64 x13 x16 x20 -32 x13 x16 x21 -224 x13 x17 x18 -128 x13 x17 x19 -64 x13 x17 x20 -160 x13 x18 x19 -64 x13 x18 x20 -32 x13 x18 x21 -96 x13 x19 x20 -32 x13 x19 x21 -32 x13 x20 x21 -384 x14 x15 x16 -480 x14 x15 x17 -352 x14 x15 x18 -224 x14 x15 x19 -160 x14 x15 x20 -96 x14 x15 x21 -32 x14 x15 x22 -480 x14 x16 x17 -192 x14 x16 x18 -224 x14 x16 x19 -128 x14 x16 x20 -64 x14 x16 x21 -32 x14 x16 x22 -352 x14 x17 x18 -224 x14 x17 x19 -64 x14 x17 x21 -32 x14 x17 x22 -224 x14 x18 x19 -128 x14 x18 x20 -64 x14 x18 x21 -160 x14 x19 x20 -64 x14 x19 x21 -32 x14 x19 x22 -96 x14 x20 x21 -32 x14 x20 x22 -32 x14 x21 x22 -384 x15 x16 x17 -480 x15 x16 x18 -352 x15 x16 x19 -224 x15 x16 x20 -160 x15 x16 x21 -96 x15 x16 x22 -32 x15 x16 x23 -480 x15 x17 x18 -192 x15 x17 x19 -224 x15 x17 x20 -128 x15 x17 x21 -64 x15 x17 x22 -32 x15 x17 x23 -352 x15 x18 x19 -224 x15 x18 x20 -64 x15 x18 x22 -32 x15 x18 x23 -224 x15 x19 x20 -128 x15 x19 x21 -64 x15 x19 x22 -160 x15 x20 x21 -64 x15 x20 x22 -32 x15 x20 x23 -96 x15 x21 x22 -32 x15 x21 x23 -32 x15 x22 x23 -384 x16 x17 x18 -480 x16 x17 x19 -352 x16 x17 x20 -224 x16 x17 x21 -160 x16 x17 x22 -96 x16 x17 x23 -32 x16 x17 x24 -480 x16 x18 x19 -192 x16 x18 x20 -224 x16 x18 x21 -128 x16 x18 x22 -64 x16 x18 x23 -32 x16 x18 x24 -352 x16 x19 x20 -224 x16 x19 x21 -64 x16 x19 x23 -32 x16 x19 x24 -224 x16 x20 x21 -128 x16 x20 x22 -64 x16 x20 x23 -160 x16 x21 x22 -64 x16 x21 x23 -32 x16 x21 x24 -96 x16 x22 x23 -32 x16 x22 x24 -32 x16 x23 x24 -384 x17 x18 x19 -480 x17 x18 x20 -352 x17 x18 x21 -224 x17 x18 x22 -160 x17 x18 x23 -96 x17 x18 x24 -32 x17 x18 x25 -480 x17 x19 x20 -192 x17 x19 x21 -224 x17 x19 x22 -128 x17 x19 x23 -64 x17 x19 x24 -32 x17 x19 x25 -352 x17 x20 x21 -224 x17 x20 x22 -64 x17 x20 x24 -32 x17 x20 x25 -224 x17 x21 x22 -128 x17 x21 x23 -64 x17 x21 x24 -160 x17 x22 x23 -64 x17 x22 x24 -32 x17 x22 x25 -96 x17 x23 x24 -32 x17 x23 x25 -32 x17 x24 x25 -384 x18 x19 x20 -480 x18 x19 x21 -352 x18 x19 x22 -224 x18 x19 x23 -160 x18 x19 x24 -96 x18 x19 x25 -32 x18 x19 x26 -480 x18 x20 x21 -192 x18 x20 x22 -224 x18 x20 x23 -128 x18 x20 x24 -64 x18 x20 x25 -32 x18 x20 x26 -352 x18 x21 x22 -224 x18 x21 x23 -64 x18 x21 x25 -32 x18 x21 x26 -224 x18 x22 x23 -128 x18 x22 x24 -64 x18 x22 x25 -160 x18 x23 x24 -64 x18 x23 x25 -32 x18 x23 x26 -96 x18 x24 x25 -32 x18 x24 x26 -32 x18 x25 x26 -384 x19 x20 x21 -480 x19 x20 x22 -352 x19 x20 x23 -224 x19 x20 x24 -160 x19 x20 x25 -96 x19 x20 x26 -32 x19 x20 x27 -480 x19 x21 x22 -192 x19 x21 x23 -224 x19 x21 x24 -128 x19 x21 x25 -64 x19 x21 x26 -32 x19 x21 x27 -352 x19 x22 x23 -224 x19 x22 x24 -64 x19 x22 x26 -32 x19 x22 x27 -224 x19 x23 x24 -128 x19 x23 x25 -64 x19 x23 x26 -160 x19 x24 x25 -64 x19 x24 x26 -32 x19 x24 x27 -96 x19 x25 x26 -32 x19 x25 x27 -32 x19 x26 x27 -384 x20 x21 x22 -480 x20 x21 x23 -352 x20 x21 x24 -224 x20 x21 x25 -160 x20 x21 x26 -96 x20 x21 x27 -32 x20 x21 x28 -480 x20 x22 x23 -192 x20 x22 x24 -224 x20 x22 x25 -128 x20 x22 x26 -64 x20 x22 x27 -32 x20 x22 x28 -352 x20 x23 x24 -224 x20 x23 x25 -64 x20 x23 x27 -32 x20 x23 x28 -224 x20 x24 x25 -128 x20 x24 x26 -64 x20 x24 x27 -160 x20 x25 x26 -64 x20 x25 x27 -32 x20 x25 x28 -96 x20 x26 x27 -32 x20 x26 x28 -32 x20 x27 x28 -384 x21 x22 x23 -480 x21 x22 x24 -352 x21 x22 x25 -224 x21 x22 x26 -160 x21 x22 x27 -96 x21 x22 x28 -32 x21 x22 x29 -480 x21 x23 x24 -192 x21 x23 x25 -224 x21 x23 x26 -128 x21 x23 x27 -64 x21 x23 x28 -32 x21 x23 x29 -352 x21 x24 x25 -224 x21 x24 x26 -64 x21 x24 x28 -32 x21 x24 x29 -224 x21 x25 x26 -128 x21 x25 x27 -64 x21 x25 x28 -160 x21 x26 x27 -64 x21 x26 x28 -32 x21 x26 x29 -96 x21 x27 x28 -32 x21 x27 x29 -32 x21 x28 x29 -384 x22 x23 x24 -480 x22 x23 x25 -352 x22 x23 x26 -224 x22 x23 x27 -160 x22 x23 x28 -96 x22 x23 x29 -32 x22 x23 x30 -480 x22 x24 x25 -192 x22 x24 x26 -224 x22 x24 x27 -128 x22 x24 x28 -64 x22 x24 x29 -32 x22 x24 x30 -352 x22 x25 x26 -224 x22 x25 x27 -64 x22 x25 x29 -32 x22 x25 x30 -224 x22 x26 x27 -128 x22 x26 x28 -64 x22 x26 x29 -160 x22 x27 x28 -64 x22 x27 x29 -32 x22 x27 x30 -96 x22 x28 x29 -32 x22 x28 x30 -32 x22 x29 x30 -384 x23 x24 x25 -480 x23 x24 x26 -352 x23 x24 x27 -224 x23 x24 x28 -160 x23 x24 x29 -96 x23 x24 x30 -32 x23 x24 x31 -480 x23 x25 x26 -192 x23 x25 x27 -224 x23 x25 x28 -128 x23 x25 x29 -64 x23 x25 x30 -32 x23 x25 x31 -352 x23 x26 x27 -224 x23 x26 x28 -64 x23 x26 x30 -32 x23 x26 x31 -224 x23 x27 x28 -128 x23 x27 x29 -64 x23 x27 x30 -160 x23 x28 x29 -64 x23 x28 x30 -32 x23 x28 x31 -96 x23 x29 x30 -32 x23 x29 x31 -32 x23 x30 x31 -384 x24 x25 x26 -480 x24 x25 x27 -352 x24 x25 x28 -224 x24 x25 x29 -160 x24 x25 x30 -96 x24 x25 x31 -32 x24 x25 x32 -480 x24 x26 x27 -192 x24 x26 x28 -224 x24 x26 x29 -128 x24 x26 x30 -64 x24 x26 x31 -32 x24 x26 x32 -352 x24 x27 x28 -224 x24 x27 x29 -64 x24 x27 x31 -32 x24 x27 x32 -224 x24 x28 x29 -128 x24 x28 x30 -64 x24 x28 x31 -160 x24 x29 x30 -64 x24 x29 x31 -32 x24 x29 x32 -96 x24 x30 x31 -32 x24 x30 x32 -32 x24 x31 x32 -384 x25 x26 x27 -480 x25 x26 x28 -352 x25 x26 x29 -224 x25 x26 x30 -160 x25 x26 x31 -96 x25 x26 x32 -32 x25 x26 x33 -480 x25 x27 x28 -192 x25 x27 x29 -224 x25 x27 x30 -128 x25 x27 x31 -64 x25 x27 x32 -32 x25 x27 x33 -352 x25 x28 x29 -224 x25 x28 x30 -64 x25 x28 x32 -32 x25 x28 x33 -224 x25 x29 x30 -128 x25 x29 x31 -64 x25 x29 x32 -160 x25 x30 x31 -64 x25 x30 x32 -32 x25 x30 x33 -96 x25 x31 x32 -32 x25 x31 x33 -32 x25 x32 x33 -384 x26 x27 x28 -480 x26 x27 x29 -352 x26 x27 x30 -224 x26 x27 x31 -160 x26 x27 x32 -96 x26 x27 x33 -32 x26 x27 x34 -480 x26 x28 x29 -192 x26 x28 x30 -224 x26 x28 x31 -128 x26 x28 x32 -64 x26 x28 x33 -32 x26 x28 x34 -352 x26 x29 x30 -224 x26 x29 x31 -64 x26 x29 x33 -32 x26 x29 x34 -224 x26 x30 x31 -128 x26 x30 x32 -64 x26 x30 x33 -160 x26 x31 x32 -64 x26 x31 x33 -32 x26 x31 x34 -96 x26 x32 x33 -32 x26 x32 x34 -32 x26 x33 x34 -384 x27 x28 x29 -480 x27 x28 x30 -352 x27 x28 x31 -224 x27 x28 x32 -160 x27 x28 x33 -96 x27 x28 x34 -32 x27 x28 x35 -480 x27 x29 x30 -192 x27 x29 x31 -224 x27 x29 x32 -128 x27 x29 x33 -64 x27 x29 x34 -32 x27 x29 x35 -352 x27 x30 x31 -224 x27 x30 x32 -64 x27 x30 x34 -32 x27 x30 x35 -224 x27 x31 x32 -128 x27 x31 x33 -64 x27 x31 x34 -160 x27 x32 x33 -64 x27 x32 x34 -32 x27 x32 x35 -96 x27 x33 x34 -32 x27 x33 x35 -32 x27 x34 x35 -352 x28 x29 x30 -416 x28 x29 x31 -288 x28 x29 x32 -160 x28 x29 x33 -96 x28 x29 x34 -32 x28 x29 x35 -416 x28 x30 x31 -160 x28 x30 x32 -160 x28 x30 x33 -64 x28 x30 x34 -32 x28 x30 x35 -288 x28 x31 x32 -160 x28 x31 x33 -32 x28 x31 x35 -192 x28 x32 x33 -96 x28 x32 x34 -32 x28 x32 x35 -128 x28 x33 x34 -32 x28 x33 x35 -64 x28 x34 x35 -288 x29 x30 x31 -352 x29 x30 x32 -224 x29 x30 x33 -96 x29 x30 x34 -32 x29 x30 x35 -320 x29 x31 x32 -128 x29 x31 x33 -96 x29 x31 x34 -32 x29 x31 x35 -192 x29 x32 x33 -128 x29 x32 x34 -128 x29 x33 x34 -64 x29 x33 x35 -64 x29 x34 x35 -224 x30 x31 x32 -256 x30 x31 x33 -160 x30 x31 x34 -32 x30 x31 x35 -224 x30 x32 x33 -64 x30 x32 x34 -64 x30 x32 x35 -128 x30 x33 x34 -64 x30 x33 x35 -64 x30 x34 x35 -160 x31 x32 x33 -160 x31 x32 x34 -64 x31 x32 x35 -128 x31 x33 x34 -32 x31 x33 x35 -64 x31 x34 x35 -96 x32 x33 x34 -64 x32 x33 x35 -64 x32 x34 x35 -32 x33 x34 x35 +96 x1 x2 +88 x1 x3 +80 x1 x4 +72 x1 x5 +80 x1 x6 +72 x1 x7 +64 x1 x8 +56 x1 x9 +192 x2 x3 +192 x2 x4 +176 x2 x5 +176 x2 x6 +176 x2 x7 +160 x2 x8 +128 x2 x9 +56 x2 x10 +304 x3 x4 +296 x3 x5 +288 x3 x6 +296 x3 x7 +272 x3 x8 +232 x3 x9 +128 x3 x10 +56 x3 x11 +432 x4 x5 +416 x4 x6 +400 x4 x7 +400 x4 x8 +352 x4 x9 +232 x4 x10 +128 x4 x11 +56 x4 x12 +560 x5 x6 +520 x5 x7 +496 x5 x8 +472 x5 x9 +352 x5 x10 +232 x5 x11 +128 x5 x12 +56 x5 x13 +672 x6 x7 +624 x6 x8 +576 x6 x9 +472 x6 x10 +352 x6 x11 +232 x6 x12 +128 x6 x13 +56 x6 x14 +768 x7 x8 +712 x7 x9 +576 x7 x10 +472 x7 x11 +352 x7 x12 +232 x7 x13 +128 x7 x14 +56 x7 x15 +864 x8 x9 +712 x8 x10 +576 x8 x11 +472 x8 x12 +352 x8 x13 +232 x8 x14 +128 x8 x15 +56 x8 x16 +864 x9 x10 +712 x9 x11 +576 x9 x12 +472 x9 x13 +352 x9 x14 +232 x9 x15 +128 x9 x16 +56 x9 x17 +864 x10 x11 +712 x10 x12 +576 x10 x13 +472 x10 x14 +352 x10 x15 +232 x10 x16 +128 x10 x17 +56 x10 x18 +864 x11 x12 +712 x11 x13 +576 x11 x14 +472 x11 x15 +352 x11 x16 +232 x11 x17 +128 x11 x18 +56 x11 x19 +864 x12 x13 +712 x12 x14 +576 x12 x15 +472 x12 x16 +352 x12 x17 +232 x12 x18 +128 x12 x19 +56 x12 x20 +864 x13 x14 +712 x13 x15 +576 x13 x16 +472 x13 x17 +352 x13 x18 +232 x13 x19 +128 x13 x20 +56 x13 x21 +864 x14 x15 +712 x14 x16 +576 x14 x17 +472 x14 x18 +352 x14 x19 +232 x14 x20 +128 x14 x21 +56 x14 x22 +864 x15 x16 +712 x15 x17 +576 x15 x18 +472 x15 x19 +352 x15 x20 +232 x15 x21 +128 x15 x22 +56 x15 x23 +864 x16 x17 +712 x16 x18 +576 x16 x19 +472 x16 x20 +352 x16 x21 +232 x16 x22 +128 x16 x23 +56 x16 x24 +864 x17 x18 +712 x17 x19 +576 x17 x20 +472 x17 x21 +352 x17 x22 +232 x17 x23 +128 x17 x24 +56 x17 x25 +864 x18 x19 +712 x18 x20 +576 x18 x21 +472 x18 x22 +352 x18 x23 +232 x18 x24 +128 x18 x25 +56 x18 x26 +864 x19 x20 +712 x19 x21 +576 x19 x22 +472 x19 x23 +352 x19 x24 +232 x19 x25 +128 x19 x26 +56 x19 x27 +864 x20 x21 +712 x20 x22 +576 x20 x23 +472 x20 x24 +352 x20 x25 +232 x20 x26 +128 x20 x27 +56 x20 x28 +864 x21 x22 +712 x21 x23 +576 x21 x24 +472 x21 x25 +352 x21 x26 +232 x21 x27 +128 x21 x28 +56 x21 x29 +864 x22 x23 +712 x22 x24 +576 x22 x25 +472 x22 x26 +352 x22 x27 +232 x22 x28 +128 x22 x29 +56 x22 x30 +864 x23 x24 +712 x23 x25 +576 x23 x26 +472 x23 x27 +352 x23 x28 +232 x23 x29 +128 x23 x30 +56 x23 x31 +864 x24 x25 +712 x24 x26 +576 x24 x27 +472 x24 x28 +352 x24 x29 +232 x24 x30 +128 x24 x31 +56 x24 x32 +864 x25 x26 +712 x25 x27 +576 x25 x28 +472 x25 x29 +352 x25 x30 +232 x25 x31 +128 x25 x32 +56 x25 x33 +864 x26 x27 +712 x26 x28 +576 x26 x29 +472 x26 x30 +352 x26 x31 +232 x26 x32 +128 x26 x33 +56 x26 x34 +864 x27 x28 +712 x27 x29 +576 x27 x30 +472 x27 x31 +352 x27 x32 +232 x27 x33 +128 x27 x34 +56 x27 x35 +768 x28 x29 +624 x28 x30 +496 x28 x31 +400 x28 x32 +272 x28 x33 +160 x28 x34 +64 x28 x35 +672 x29 x30 +520 x29 x31 +400 x29 x32 +296 x29 x33 +176 x29 x34 +72 x29 x35 +560 x30 x31 +416 x30 x32 +288 x30 x33 +176 x30 x34 +80 x30 x35 +432 x31 x32 +296 x31 x33 +176 x31 x34 +72 x31 x35 +304 x32 x33 +192 x32 x34 +80 x32 x35 +192 x33 x34 +88 x33 x35 +96 x34 x35 -112 x1 -244 x2 -388 x3 -536 x4 -680 x5 -828 x6 -972 x7 -1104 x8 -1216 x9 -1216 x10 -1216 x11 -1216 x12 -1216 x13 -1216 x14 -1216 x15 -1216 x16 -1216 x17 -1216 x18 -1216 x19 -1216 x20 -1216 x21 -1216 x22 -1216 x23 -1216 x24 -1216 x25 -1216 x26 -1216 x27 -1104 x28 -972 x29 -828 x30 -680 x31 -536 x32 -388 x33 -244 x34 -112 x35 ;
+1 x1 >= 0 ;
